NAME 
ROWS
 N  OBJ
 G  R0      
 G  R1      
 G  R2      
 G  R3      
 G  R4      
 G  R5      
 G  R6      
 G  R7      
 G  R8      
 G  R9      
 G  R10     
 G  R11     
 G  R12     
 G  R13     
 G  R14     
 G  R15     
 G  R16     
 G  R17     
 G  R18     
 G  R19     
 G  R20     
 G  R21     
 G  R22     
 G  R23     
 G  R24     
 G  R25     
 G  R26     
 G  R27     
 G  R28     
 G  R29     
 G  R30     
 G  R31     
 G  R32     
 G  R33     
 G  R34     
 G  R35     
 G  R36     
 G  R37     
 G  R38     
 G  R39     
 G  R40     
 G  R41     
 G  R42     
 G  R43     
 G  R44     
 G  R45     
 G  R46     
 G  R47     
 G  R48     
 G  R49     
 G  R50     
 G  R51     
 G  R52     
 G  R53     
 G  R54     
 G  R55     
 G  R56     
 G  R57     
 G  R58     
 G  R59     
 G  R60     
 G  R61     
 G  R62     
 G  R63     
COLUMNS
    x0        OBJ       1
    x0        R0        1
    x0        R1        1
    x0        R2        1
    x0        R4        1
    x0        R8        1
    x0        R16       1
    x0        R32       1
    x1        OBJ       1
    x1        R0        1
    x1        R1        1
    x1        R3        1
    x1        R5        1
    x1        R9        1
    x1        R17       1
    x1        R33       1
    x2        OBJ       1
    x2        R0        1
    x2        R2        1
    x2        R3        1
    x2        R6        1
    x2        R10       1
    x2        R18       1
    x2        R34       1
    x3        OBJ       1
    x3        R1        1
    x3        R2        1
    x3        R3        1
    x3        R7        1
    x3        R11       1
    x3        R19       1
    x3        R35       1
    x4        OBJ       1
    x4        R0        1
    x4        R4        1
    x4        R5        1
    x4        R6        1
    x4        R12       1
    x4        R20       1
    x4        R36       1
    x5        OBJ       1
    x5        R1        1
    x5        R4        1
    x5        R5        1
    x5        R7        1
    x5        R13       1
    x5        R21       1
    x5        R37       1
    x6        OBJ       1
    x6        R2        1
    x6        R4        1
    x6        R6        1
    x6        R7        1
    x6        R14       1
    x6        R22       1
    x6        R38       1
    x7        OBJ       1
    x7        R3        1
    x7        R5        1
    x7        R6        1
    x7        R7        1
    x7        R15       1
    x7        R23       1
    x7        R39       1
    x8        OBJ       1
    x8        R0        1
    x8        R8        1
    x8        R9        1
    x8        R10       1
    x8        R12       1
    x8        R24       1
    x8        R40       1
    x9        OBJ       1
    x9        R1        1
    x9        R8        1
    x9        R9        1
    x9        R11       1
    x9        R13       1
    x9        R25       1
    x9        R41       1
    x10       OBJ       1
    x10       R2        1
    x10       R8        1
    x10       R10       1
    x10       R11       1
    x10       R14       1
    x10       R26       1
    x10       R42       1
    x11       OBJ       1
    x11       R3        1
    x11       R9        1
    x11       R10       1
    x11       R11       1
    x11       R15       1
    x11       R27       1
    x11       R43       1
    x12       OBJ       1
    x12       R4        1
    x12       R8        1
    x12       R12       1
    x12       R13       1
    x12       R14       1
    x12       R28       1
    x12       R44       1
    x13       OBJ       1
    x13       R5        1
    x13       R9        1
    x13       R12       1
    x13       R13       1
    x13       R15       1
    x13       R29       1
    x13       R45       1
    x14       OBJ       1
    x14       R6        1
    x14       R10       1
    x14       R12       1
    x14       R14       1
    x14       R15       1
    x14       R30       1
    x14       R46       1
    x15       OBJ       1
    x15       R7        1
    x15       R11       1
    x15       R13       1
    x15       R14       1
    x15       R15       1
    x15       R31       1
    x15       R47       1
    x16       OBJ       1
    x16       R0        1
    x16       R16       1
    x16       R17       1
    x16       R18       1
    x16       R20       1
    x16       R24       1
    x16       R48       1
    x17       OBJ       1
    x17       R1        1
    x17       R16       1
    x17       R17       1
    x17       R19       1
    x17       R21       1
    x17       R25       1
    x17       R49       1
    x18       OBJ       1
    x18       R2        1
    x18       R16       1
    x18       R18       1
    x18       R19       1
    x18       R22       1
    x18       R26       1
    x18       R50       1
    x19       OBJ       1
    x19       R3        1
    x19       R17       1
    x19       R18       1
    x19       R19       1
    x19       R23       1
    x19       R27       1
    x19       R51       1
    x20       OBJ       1
    x20       R4        1
    x20       R16       1
    x20       R20       1
    x20       R21       1
    x20       R22       1
    x20       R28       1
    x20       R52       1
    x21       OBJ       1
    x21       R5        1
    x21       R17       1
    x21       R20       1
    x21       R21       1
    x21       R23       1
    x21       R29       1
    x21       R53       1
    x22       OBJ       1
    x22       R6        1
    x22       R18       1
    x22       R20       1
    x22       R22       1
    x22       R23       1
    x22       R30       1
    x22       R54       1
    x23       OBJ       1
    x23       R7        1
    x23       R19       1
    x23       R21       1
    x23       R22       1
    x23       R23       1
    x23       R31       1
    x23       R55       1
    x24       OBJ       1
    x24       R8        1
    x24       R16       1
    x24       R24       1
    x24       R25       1
    x24       R26       1
    x24       R28       1
    x24       R56       1
    x25       OBJ       1
    x25       R9        1
    x25       R17       1
    x25       R24       1
    x25       R25       1
    x25       R27       1
    x25       R29       1
    x25       R57       1
    x26       OBJ       1
    x26       R10       1
    x26       R18       1
    x26       R24       1
    x26       R26       1
    x26       R27       1
    x26       R30       1
    x26       R58       1
    x27       OBJ       1
    x27       R11       1
    x27       R19       1
    x27       R25       1
    x27       R26       1
    x27       R27       1
    x27       R31       1
    x27       R59       1
    x28       OBJ       1
    x28       R12       1
    x28       R20       1
    x28       R24       1
    x28       R28       1
    x28       R29       1
    x28       R30       1
    x28       R60       1
    x29       OBJ       1
    x29       R13       1
    x29       R21       1
    x29       R25       1
    x29       R28       1
    x29       R29       1
    x29       R31       1
    x29       R61       1
    x30       OBJ       1
    x30       R14       1
    x30       R22       1
    x30       R26       1
    x30       R28       1
    x30       R30       1
    x30       R31       1
    x30       R62       1
    x31       OBJ       1
    x31       R15       1
    x31       R23       1
    x31       R27       1
    x31       R29       1
    x31       R30       1
    x31       R31       1
    x31       R63       1
    x32       OBJ       1
    x32       R0        1
    x32       R32       1
    x32       R33       1
    x32       R34       1
    x32       R36       1
    x32       R40       1
    x32       R48       1
    x33       OBJ       1
    x33       R1        1
    x33       R32       1
    x33       R33       1
    x33       R35       1
    x33       R37       1
    x33       R41       1
    x33       R49       1
    x34       OBJ       1
    x34       R2        1
    x34       R32       1
    x34       R34       1
    x34       R35       1
    x34       R38       1
    x34       R42       1
    x34       R50       1
    x35       OBJ       1
    x35       R3        1
    x35       R33       1
    x35       R34       1
    x35       R35       1
    x35       R39       1
    x35       R43       1
    x35       R51       1
    x36       OBJ       1
    x36       R4        1
    x36       R32       1
    x36       R36       1
    x36       R37       1
    x36       R38       1
    x36       R44       1
    x36       R52       1
    x37       OBJ       1
    x37       R5        1
    x37       R33       1
    x37       R36       1
    x37       R37       1
    x37       R39       1
    x37       R45       1
    x37       R53       1
    x38       OBJ       1
    x38       R6        1
    x38       R34       1
    x38       R36       1
    x38       R38       1
    x38       R39       1
    x38       R46       1
    x38       R54       1
    x39       OBJ       1
    x39       R7        1
    x39       R35       1
    x39       R37       1
    x39       R38       1
    x39       R39       1
    x39       R47       1
    x39       R55       1
    x40       OBJ       1
    x40       R8        1
    x40       R32       1
    x40       R40       1
    x40       R41       1
    x40       R42       1
    x40       R44       1
    x40       R56       1
    x41       OBJ       1
    x41       R9        1
    x41       R33       1
    x41       R40       1
    x41       R41       1
    x41       R43       1
    x41       R45       1
    x41       R57       1
    x42       OBJ       1
    x42       R10       1
    x42       R34       1
    x42       R40       1
    x42       R42       1
    x42       R43       1
    x42       R46       1
    x42       R58       1
    x43       OBJ       1
    x43       R11       1
    x43       R35       1
    x43       R41       1
    x43       R42       1
    x43       R43       1
    x43       R47       1
    x43       R59       1
    x44       OBJ       1
    x44       R12       1
    x44       R36       1
    x44       R40       1
    x44       R44       1
    x44       R45       1
    x44       R46       1
    x44       R60       1
    x45       OBJ       1
    x45       R13       1
    x45       R37       1
    x45       R41       1
    x45       R44       1
    x45       R45       1
    x45       R47       1
    x45       R61       1
    x46       OBJ       1
    x46       R14       1
    x46       R38       1
    x46       R42       1
    x46       R44       1
    x46       R46       1
    x46       R47       1
    x46       R62       1
    x47       OBJ       1
    x47       R15       1
    x47       R39       1
    x47       R43       1
    x47       R45       1
    x47       R46       1
    x47       R47       1
    x47       R63       1
    x48       OBJ       1
    x48       R16       1
    x48       R32       1
    x48       R48       1
    x48       R49       1
    x48       R50       1
    x48       R52       1
    x48       R56       1
    x49       OBJ       1
    x49       R17       1
    x49       R33       1
    x49       R48       1
    x49       R49       1
    x49       R51       1
    x49       R53       1
    x49       R57       1
    x50       OBJ       1
    x50       R18       1
    x50       R34       1
    x50       R48       1
    x50       R50       1
    x50       R51       1
    x50       R54       1
    x50       R58       1
    x51       OBJ       1
    x51       R19       1
    x51       R35       1
    x51       R49       1
    x51       R50       1
    x51       R51       1
    x51       R55       1
    x51       R59       1
    x52       OBJ       1
    x52       R20       1
    x52       R36       1
    x52       R48       1
    x52       R52       1
    x52       R53       1
    x52       R54       1
    x52       R60       1
    x53       OBJ       1
    x53       R21       1
    x53       R37       1
    x53       R49       1
    x53       R52       1
    x53       R53       1
    x53       R55       1
    x53       R61       1
    x54       OBJ       1
    x54       R22       1
    x54       R38       1
    x54       R50       1
    x54       R52       1
    x54       R54       1
    x54       R55       1
    x54       R62       1
    x55       OBJ       1
    x55       R23       1
    x55       R39       1
    x55       R51       1
    x55       R53       1
    x55       R54       1
    x55       R55       1
    x55       R63       1
    x56       OBJ       1
    x56       R24       1
    x56       R40       1
    x56       R48       1
    x56       R56       1
    x56       R57       1
    x56       R58       1
    x56       R60       1
    x57       OBJ       1
    x57       R25       1
    x57       R41       1
    x57       R49       1
    x57       R56       1
    x57       R57       1
    x57       R59       1
    x57       R61       1
    x58       OBJ       1
    x58       R26       1
    x58       R42       1
    x58       R50       1
    x58       R56       1
    x58       R58       1
    x58       R59       1
    x58       R62       1
    x59       OBJ       1
    x59       R27       1
    x59       R43       1
    x59       R51       1
    x59       R57       1
    x59       R58       1
    x59       R59       1
    x59       R63       1
    x60       OBJ       1
    x60       R28       1
    x60       R44       1
    x60       R52       1
    x60       R56       1
    x60       R60       1
    x60       R61       1
    x60       R62       1
    x61       OBJ       1
    x61       R29       1
    x61       R45       1
    x61       R53       1
    x61       R57       1
    x61       R60       1
    x61       R61       1
    x61       R63       1
    x62       OBJ       1
    x62       R30       1
    x62       R46       1
    x62       R54       1
    x62       R58       1
    x62       R60       1
    x62       R62       1
    x62       R63       1
    x63       OBJ       1
    x63       R31       1
    x63       R47       1
    x63       R55       1
    x63       R59       1
    x63       R61       1
    x63       R62       1
    x63       R63       1
RHS
    RHS1      R0        1
    RHS1      R1        1
    RHS1      R2        1
    RHS1      R3        1
    RHS1      R4        1
    RHS1      R5        1
    RHS1      R6        1
    RHS1      R7        1
    RHS1      R8        1
    RHS1      R9        1
    RHS1      R10       1
    RHS1      R11       1
    RHS1      R12       1
    RHS1      R13       1
    RHS1      R14       1
    RHS1      R15       1
    RHS1      R16       1
    RHS1      R17       1
    RHS1      R18       1
    RHS1      R19       1
    RHS1      R20       1
    RHS1      R21       1
    RHS1      R22       1
    RHS1      R23       1
    RHS1      R24       1
    RHS1      R25       1
    RHS1      R26       1
    RHS1      R27       1
    RHS1      R28       1
    RHS1      R29       1
    RHS1      R30       1
    RHS1      R31       1
    RHS1      R32       1
    RHS1      R33       1
    RHS1      R34       1
    RHS1      R35       1
    RHS1      R36       1
    RHS1      R37       1
    RHS1      R38       1
    RHS1      R39       1
    RHS1      R40       1
    RHS1      R41       1
    RHS1      R42       1
    RHS1      R43       1
    RHS1      R44       1
    RHS1      R45       1
    RHS1      R46       1
    RHS1      R47       1
    RHS1      R48       1
    RHS1      R49       1
    RHS1      R50       1
    RHS1      R51       1
    RHS1      R52       1
    RHS1      R53       1
    RHS1      R54       1
    RHS1      R55       1
    RHS1      R56       1
    RHS1      R57       1
    RHS1      R58       1
    RHS1      R59       1
    RHS1      R60       1
    RHS1      R61       1
    RHS1      R62       1
    RHS1      R63       1
BOUNDS
 UP BND1      x0        1
 UP BND1      x1        1
 UP BND1      x2        1
 UP BND1      x3        1
 UP BND1      x4        1
 UP BND1      x5        1
 UP BND1      x6        1
 UP BND1      x7        1
 UP BND1      x8        1
 UP BND1      x9        1
 UP BND1      x10       1
 UP BND1      x11       1
 UP BND1      x12       1
 UP BND1      x13       1
 UP BND1      x14       1
 UP BND1      x15       1
 UP BND1      x16       1
 UP BND1      x17       1
 UP BND1      x18       1
 UP BND1      x19       1
 UP BND1      x20       1
 UP BND1      x21       1
 UP BND1      x22       1
 UP BND1      x23       1
 UP BND1      x24       1
 UP BND1      x25       1
 UP BND1      x26       1
 UP BND1      x27       1
 UP BND1      x28       1
 UP BND1      x29       1
 UP BND1      x30       1
 UP BND1      x31       1
 UP BND1      x32       1
 UP BND1      x33       1
 UP BND1      x34       1
 UP BND1      x35       1
 UP BND1      x36       1
 UP BND1      x37       1
 UP BND1      x38       1
 UP BND1      x39       1
 UP BND1      x40       1
 UP BND1      x41       1
 UP BND1      x42       1
 UP BND1      x43       1
 UP BND1      x44       1
 UP BND1      x45       1
 UP BND1      x46       1
 UP BND1      x47       1
 UP BND1      x48       1
 UP BND1      x49       1
 UP BND1      x50       1
 UP BND1      x51       1
 UP BND1      x52       1
 UP BND1      x53       1
 UP BND1      x54       1
 UP BND1      x55       1
 UP BND1      x56       1
 UP BND1      x57       1
 UP BND1      x58       1
 UP BND1      x59       1
 UP BND1      x60       1
 UP BND1      x61       1
 UP BND1      x62       1
 UP BND1      x63       1
ENDATA
